c A SAT instance generated from a 3-CNF formula that had 30 clauses and 10 variables
p cnf 10 30
6 10 -5 0
-7 6 4 0
-6 1 -9 0
6 4 1 0
4 -8 -3 0
-1 -9 -6 0
-7 10 -4 0
-8 4 7 0
1 8 6 0
-6 5 8 0
6 3 -8 0
4 -3 6 0
-3 4 -10 0
9 1 6 0
3 9 6 0
-6 -10 -8 0
-8 -6 9 0
-6 -2 -7 0
-9 -10 6 0
-4 5 -10 0
6 -3 -5 0
7 1 9 0
-8 5 10 0
2 9 8 0
6 -8 2 0
-3 1 7 0
-9 6 -8 0
2 -1 3 0
-10 -4 -7 0
4 -6 -1 0
